RAW/CMTT/fspd-long/CMT7T.vrp_seed-3.out
903.0474612	2.203	293.392
